NAME : G-n20-k7
CAPACITY : 892
NODE_COORD_SECTION
1   121   479
2   106   476
3   161   274
4   409   216
5   293   247
6   105   399
7   395   498
8   213   184
9   412   406
10   342   105
11   482   408
12   255   111
13   243   469
14   223   163
15   485   427
16   333   229
17   387   317
18   58   282
19   160   480
20   381   116
DEMAND_SECTION
1   0
2   7
3   51
4   19
5   7
6   19
7   76
8   84
9   80
10   30
11   87
12   20
13   48
14   29
15   51
16   25
17   89
18   58
19   46
20   86
DEPOT_SECTION
    1
    -1
EOF